nN = 10;
nR = 50;
nH = 2;

a = [[22, 11, 13, 14, 17, 24, 23, 14, 15, 16, 18, 18, 21, 19, 20, 11, 11, 23, 25, 15, 22, 12, 23, 11, 14, 12, 15, 14, 21, 12, 17, 14, 18, 16, 22, 16, 21, 15, 19, 17, 14, 14, 24, 19, 15, 15, 16, 18, 18, 16], [12, 15, 24, 22, 23, 15, 22, 16, 22, 14, 12, 24, 16, 23, 17, 11, 19, 14, 20, 15, 18, 23, 17, 18, 24, 14, 22, 16, 14, 11, 18, 11, 23, 10, 18, 23, 19, 18, 14, 12, 21, 19, 19, 12, 14, 13, 19, 13, 19, 24], [16, 25, 18, 14, 11, 14, 14, 22, 23, 15, 13, 14, 19, 19, 15, 15, 20, 25, 19, 17, 13, 14, 20, 16, 18, 21, 25, 13, 10, 15, 12, 14, 15, 15, 16, 20, 13, 16, 14, 15, 18, 17, 11, 23, 10, 24, 12, 24, 11, 19], [20, 12, 11, 25, 11, 24, 25, 20, 20, 23, 23, 23, 25, 12, 11, 18, 16, 16, 13, 15, 24, 23, 16, 20, 12, 18, 16, 17, 12, 24, 11, 19, 23, 20, 15, 12, 18, 23, 15, 16, 23, 23, 14, 13, 16, 16, 17, 19, 24, 19], [20, 11, 13, 21, 19, 11, 16, 24, 22, 20, 14, 17, 20, 13, 17, 13, 18, 11, 18, 16, 18, 24, 11, 24, 12, 25, 21, 15, 13, 13, 12, 17, 14, 24, 13, 20, 17, 22, 23, 10, 16, 15, 20, 21, 24, 15, 16, 15, 12, 15], [21, 25, 20, 20, 16, 10, 13, 25, 20, 11, 24, 13, 18, 16, 25, 10, 14, 10, 15, 21, 20, 12, 11, 14, 14, 10, 16, 11, 17, 11, 11, 15, 13, 20, 20, 20, 12, 11, 19, 18, 21, 24, 18, 12, 16, 19, 10, 16, 12, 10], [11, 19, 16, 17, 23, 10, 17, 23, 15, 15, 14, 16, 16, 20, 20, 13, 15, 17, 18, 15, 10, 24, 17, 12, 25, 13, 14, 18, 20, 14, 16, 24, 13, 11, 12, 16, 18, 22, 17, 22, 23, 21, 10, 18, 22, 15, 13, 21, 13, 18], [22, 24, 11, 22, 14, 21, 17, 22, 21, 23, 15, 20, 12, 24, 11, 24, 21, 22, 11, 16, 15, 14, 19, 23, 21, 15, 13, 13, 23, 24, 22, 16, 17, 21, 23, 11, 19, 16, 15, 16, 18, 16, 19, 11, 20, 25, 18, 17, 15, 22], [15, 18, 13, 11, 16, 19, 14, 23, 13, 10, 19, 22, 17, 15, 23, 21, 16, 20, 24, 16, 14, 10, 14, 21, 20, 13, 24, 24, 19, 23, 11, 24, 22, 14, 21, 14, 10, 22, 25, 11, 17, 13, 20, 21, 12, 14, 10, 25, 24, 22], [16, 19, 16, 22, 13, 12, 16, 19, 22, 22, 13, 19, 25, 16, 16, 11, 13, 13, 22, 22, 21, 18, 17, 18, 16, 13, 24, 11, 13, 15, 18, 20, 18, 18, 24, 25, 15, 17, 25, 23, 11, 19, 21, 19, 16, 13, 25, 14, 24, 22]];
c = [[[0, 0, 0, 0, 0, 0, 0, 0, 0, 0, 0, 0, 0, 0, 0, 0, 0, 0, 0, 0, 0, 0, 0, 0, 0, 0, 0, 0, 0, 0, 0, 0, 0, 0, 0, 0, 0, 0, 0, 0, 0, 0, 0, 0, 0, 0, 0, 0, 0, 0], [40, 43, 38, 37, 50, 37, 35, 48, 40, 36, 48, 50, 47, 31, 47, 49, 49, 46, 31, 39, 31, 32, 45, 36, 34, 40, 48, 48, 37, 37, 38, 37, 30, 31, 38, 38, 34, 35, 33, 38, 40, 50, 48, 37, 32, 50, 44, 36, 47, 41], [32, 44, 30, 35, 30, 35, 44, 48, 41, 32, 48, 32, 50, 44, 32, 34, 40, 40, 31, 46, 37, 33, 34, 48, 37, 38, 38, 34, 38, 45, 33, 30, 35, 50, 44, 49, 37, 34, 30, 47, 33, 43, 30, 30, 39, 38, 36, 40, 45, 34], [32, 46, 41, 37, 48, 48, 44, 37, 40, 39, 39, 43, 30, 32, 49, 41, 39, 48, 42, 31, 30, 36, 41, 49, 44, 42, 37, 43, 50, 44, 43, 47, 39, 35, 41, 41, 47, 47, 33, 32, 34, 45, 38, 50, 30, 50, 43, 46, 31, 42], [49, 36, 44, 39, 41, 50, 49, 48, 50, 30, 46, 49, 39, 30, 37, 46, 44, 31, 34, 49, 49, 32, 44, 40, 44, 38, 41, 30, 38, 31, 49, 35, 31, 32, 50, 31, 46, 45, 43, 48, 42, 35, 39, 39, 45, 48, 36, 39, 46, 43], [47, 38, 41, 41, 43, 43, 32, 50, 46, 41, 42, 46, 38, 41, 30, 36, 46, 47, 44, 50, 42, 46, 42, 38, 35, 37, 43, 31, 36, 41, 50, 30, 37, 40, 43, 42, 35, 50, 41, 47, 49, 50, 40, 44, 45, 49, 35, 45, 30, 48], [50, 38, 34, 33, 43, 37, 47, 49, 46, 37, 35, 33, 38, 47, 50, 50, 47, 46, 43, 38, 48, 44, 41, 45, 43, 32, 38, 41, 50, 34, 39, 40, 33, 37, 48, 30, 42, 48, 48, 30, 30, 31, 42, 40, 35, 50, 45, 30, 31, 44], [40, 42, 30, 49, 50, 41, 30, 43, 40, 44, 35, 32, 31, 30, 30, 50, 50, 44, 42, 46, 34, 45, 46, 42, 45, 37, 31, 41, 38, 41, 45, 41, 49, 35, 35, 41, 35, 50, 42, 34, 39, 39, 45, 46, 49, 49, 38, 44, 34, 30], [30, 41, 46, 45, 32, 30, 45, 44, 31, 40, 44, 30, 35, 47, 47, 35, 39, 30, 44, 34, 38, 45, 43, 49, 31, 39, 39, 39, 31, 49, 45, 40, 49, 41, 35, 30, 42, 31, 42, 47, 45, 36, 47, 47, 37, 50, 39, 43, 30, 36], [30, 47, 45, 39, 42, 44, 50, 48, 31, 38, 38, 31, 45, 31, 50, 32, 48, 46, 45, 33, 43, 36, 48, 49, 49, 40, 31, 30, 39, 48, 45, 46, 35, 44, 42, 35, 30, 47, 48, 50, 35, 46, 42, 47, 38, 44, 43, 40, 31, 48]], [[0, 0, 0, 0, 0, 0, 0, 0, 0, 0, 0, 0, 0, 0, 0, 0, 0, 0, 0, 0, 0, 0, 0, 0, 0, 0, 0, 0, 0, 0, 0, 0, 0, 0, 0, 0, 0, 0, 0, 0, 0, 0, 0, 0, 0, 0, 0, 0, 0, 0], [0, 0, 0, 0, 0, 0, 0, 0, 0, 0, 0, 0, 0, 0, 0, 0, 0, 0, 0, 0, 0, 0, 0, 0, 0, 0, 0, 0, 0, 0, 0, 0, 0, 0, 0, 0, 0, 0, 0, 0, 0, 0, 0, 0, 0, 0, 0, 0, 0, 0], [38, 36, 33, 45, 32, 50, 47, 42, 46, 35, 42, 30, 37, 47, 32, 31, 38, 36, 33, 31, 48, 49, 41, 45, 43, 47, 46, 46, 47, 31, 47, 41, 48, 43, 32, 49, 43, 30, 36, 34, 34, 49, 33, 39, 48, 48, 42, 37, 49, 35], [30, 43, 40, 36, 41, 36, 40, 48, 44, 47, 38, 48, 33, 40, 41, 30, 39, 46, 41, 48, 40, 30, 35, 40, 36, 49, 44, 33, 37, 44, 34, 43, 46, 32, 36, 32, 33, 44, 41, 49, 30, 50, 44, 36, 48, 46, 33, 45, 46, 33], [50, 46, 46, 42, 32, 38, 42, 33, 34, 46, 35, 40, 42, 38, 30, 31, 46, 50, 38, 46, 47, 38, 34, 44, 31, 37, 40, 49, 40, 48, 41, 30, 35, 37, 33, 32, 38, 35, 35, 30, 48, 35, 44, 33, 44, 48, 40, 40, 48, 41], [37, 41, 48, 32, 36, 37, 36, 30, 39, 45, 40, 48, 43, 50, 40, 49, 50, 36, 39, 47, 40, 42, 33, 37, 48, 33, 43, 30, 35, 33, 35, 30, 38, 30, 46, 42, 38, 42, 34, 38, 46, 31, 41, 37, 46, 37, 34, 38, 36, 40], [41, 39, 49, 43, 34, 43, 47, 45, 31, 34, 37, 39, 50, 49, 36, 35, 36, 46, 45, 31, 42, 41, 34, 45, 39, 35, 42, 38, 44, 38, 45, 40, 35, 49, 41, 47, 39, 36, 47, 44, 48, 34, 39, 31, 49, 31, 41, 30, 43, 47], [45, 43, 34, 46, 44, 50, 40, 50, 44, 45, 39, 30, 50, 42, 30, 47, 41, 40, 44, 34, 43, 38, 37, 32, 49, 44, 44, 42, 32, 42, 49, 31, 34, 50, 35, 30, 39, 31, 38, 46, 30, 45, 35, 38, 48, 41, 50, 50, 34, 35], [31, 47, 31, 43, 46, 48, 31, 34, 31, 33, 33, 38, 36, 37, 36, 46, 40, 47, 39, 34, 31, 44, 32, 32, 43, 40, 32, 36, 38, 31, 41, 50, 32, 46, 46, 47, 50, 48, 42, 45, 41, 49, 41, 39, 34, 43, 41, 50, 50, 33], [47, 37, 33, 30, 34, 46, 46, 42, 40, 34, 45, 44, 48, 36, 33, 50, 46, 32, 44, 32, 44, 31, 42, 35, 32, 49, 45, 39, 36, 31, 37, 46, 50, 50, 30, 39, 33, 49, 46, 39, 40, 35, 49, 47, 44, 44, 35, 50, 42, 50]], [[0, 0, 0, 0, 0, 0, 0, 0, 0, 0, 0, 0, 0, 0, 0, 0, 0, 0, 0, 0, 0, 0, 0, 0, 0, 0, 0, 0, 0, 0, 0, 0, 0, 0, 0, 0, 0, 0, 0, 0, 0, 0, 0, 0, 0, 0, 0, 0, 0, 0], [0, 0, 0, 0, 0, 0, 0, 0, 0, 0, 0, 0, 0, 0, 0, 0, 0, 0, 0, 0, 0, 0, 0, 0, 0, 0, 0, 0, 0, 0, 0, 0, 0, 0, 0, 0, 0, 0, 0, 0, 0, 0, 0, 0, 0, 0, 0, 0, 0, 0], [0, 0, 0, 0, 0, 0, 0, 0, 0, 0, 0, 0, 0, 0, 0, 0, 0, 0, 0, 0, 0, 0, 0, 0, 0, 0, 0, 0, 0, 0, 0, 0, 0, 0, 0, 0, 0, 0, 0, 0, 0, 0, 0, 0, 0, 0, 0, 0, 0, 0], [35, 30, 40, 46, 38, 39, 40, 30, 45, 49, 33, 44, 37, 34, 41, 45, 44, 45, 41, 42, 41, 44, 50, 41, 30, 41, 32, 39, 47, 47, 38, 47, 45, 49, 37, 37, 42, 40, 30, 39, 43, 31, 36, 30, 45, 44, 49, 35, 40, 37], [39, 39, 48, 31, 31, 39, 47, 40, 31, 43, 33, 43, 42, 47, 32, 40, 46, 40, 46, 47, 37, 50, 48, 43, 46, 43, 32, 36, 44, 47, 48, 30, 36, 31, 47, 42, 37, 36, 42, 46, 48, 39, 36, 39, 30, 48, 41, 35, 39, 31], [41, 32, 48, 39, 33, 39, 45, 40, 47, 48, 33, 30, 30, 44, 46, 40, 35, 44, 34, 42, 30, 49, 41, 47, 43, 44, 48, 50, 38, 47, 40, 50, 41, 50, 47, 41, 36, 35, 45, 46, 42, 50, 49, 49, 42, 31, 46, 44, 46, 40], [38, 43, 42, 34, 49, 49, 41, 37, 46, 39, 45, 35, 37, 30, 43, 44, 50, 38, 47, 34, 49, 45, 41, 38, 45, 40, 42, 50, 49, 37, 37, 41, 45, 43, 34, 34, 31, 44, 30, 49, 48, 33, 48, 36, 47, 42, 34, 40, 46, 33], [44, 31, 35, 37, 37, 44, 45, 49, 30, 48, 30, 43, 37, 30, 38, 41, 49, 30, 31, 46, 30, 31, 49, 48, 41, 43, 46, 39, 32, 46, 42, 36, 31, 36, 30, 47, 40, 38, 49, 37, 49, 44, 50, 35, 45, 46, 46, 45, 34, 32], [35, 39, 44, 33, 46, 47, 48, 44, 46, 42, 32, 41, 49, 32, 40, 38, 37, 39, 33, 36, 43, 36, 45, 42, 30, 43, 35, 42, 46, 47, 42, 45, 49, 35, 39, 40, 33, 42, 33, 49, 41, 37, 43, 32, 30, 37, 43, 30, 38, 41], [40, 47, 44, 45, 40, 34, 45, 32, 37, 48, 49, 49, 47, 47, 34, 50, 41, 42, 48, 46, 32, 35, 34, 38, 30, 32, 39, 42, 36, 45, 32, 49, 43, 47, 32, 39, 39, 31, 43, 45, 34, 48, 38, 46, 40, 47, 49, 33, 50, 44]], [[0, 0, 0, 0, 0, 0, 0, 0, 0, 0, 0, 0, 0, 0, 0, 0, 0, 0, 0, 0, 0, 0, 0, 0, 0, 0, 0, 0, 0, 0, 0, 0, 0, 0, 0, 0, 0, 0, 0, 0, 0, 0, 0, 0, 0, 0, 0, 0, 0, 0], [0, 0, 0, 0, 0, 0, 0, 0, 0, 0, 0, 0, 0, 0, 0, 0, 0, 0, 0, 0, 0, 0, 0, 0, 0, 0, 0, 0, 0, 0, 0, 0, 0, 0, 0, 0, 0, 0, 0, 0, 0, 0, 0, 0, 0, 0, 0, 0, 0, 0], [0, 0, 0, 0, 0, 0, 0, 0, 0, 0, 0, 0, 0, 0, 0, 0, 0, 0, 0, 0, 0, 0, 0, 0, 0, 0, 0, 0, 0, 0, 0, 0, 0, 0, 0, 0, 0, 0, 0, 0, 0, 0, 0, 0, 0, 0, 0, 0, 0, 0], [0, 0, 0, 0, 0, 0, 0, 0, 0, 0, 0, 0, 0, 0, 0, 0, 0, 0, 0, 0, 0, 0, 0, 0, 0, 0, 0, 0, 0, 0, 0, 0, 0, 0, 0, 0, 0, 0, 0, 0, 0, 0, 0, 0, 0, 0, 0, 0, 0, 0], [37, 35, 30, 50, 49, 45, 42, 50, 41, 43, 33, 32, 31, 38, 32, 37, 41, 47, 36, 32, 30, 31, 40, 36, 31, 37, 50, 38, 49, 35, 30, 48, 50, 48, 46, 36, 47, 42, 44, 32, 39, 48, 33, 38, 30, 50, 36, 30, 34, 39], [48, 31, 30, 35, 32, 49, 35, 49, 39, 43, 38, 45, 48, 47, 47, 40, 31, 38, 45, 44, 50, 33, 37, 47, 32, 41, 39, 46, 40, 47, 45, 31, 34, 46, 46, 44, 50, 31, 42, 50, 39, 44, 42, 47, 35, 45, 42, 30, 46, 35], [32, 42, 43, 44, 46, 42, 49, 49, 39, 35, 32, 44, 36, 31, 49, 47, 49, 30, 44, 34, 40, 38, 37, 45, 50, 38, 37, 47, 31, 36, 39, 43, 33, 35, 35, 36, 42, 32, 49, 37, 47, 33, 36, 43, 35, 48, 48, 41, 41, 49], [41, 48, 45, 38, 44, 48, 32, 31, 46, 30, 36, 42, 32, 37, 47, 45, 31, 33, 39, 43, 35, 38, 39, 43, 35, 41, 34, 35, 49, 31, 31, 36, 32, 34, 41, 48, 49, 35, 40, 41, 35, 30, 41, 36, 50, 46, 35, 40, 43, 35], [43, 43, 45, 33, 34, 49, 36, 46, 39, 40, 45, 46, 47, 46, 46, 35, 40, 47, 42, 31, 32, 33, 49, 30, 34, 35, 39, 48, 49, 40, 40, 33, 36, 40, 47, 36, 45, 43, 45, 42, 42, 38, 50, 31, 49, 36, 45, 30, 36, 31], [45, 43, 34, 35, 35, 32, 38, 40, 49, 41, 46, 34, 30, 36, 45, 41, 37, 34, 42, 41, 31, 50, 30, 35, 49, 34, 45, 34, 38, 50, 43, 45, 36, 37, 38, 49, 36, 39, 31, 48, 47, 38, 41, 44, 32, 34, 42, 31, 44, 47]], [[0, 0, 0, 0, 0, 0, 0, 0, 0, 0, 0, 0, 0, 0, 0, 0, 0, 0, 0, 0, 0, 0, 0, 0, 0, 0, 0, 0, 0, 0, 0, 0, 0, 0, 0, 0, 0, 0, 0, 0, 0, 0, 0, 0, 0, 0, 0, 0, 0, 0], [0, 0, 0, 0, 0, 0, 0, 0, 0, 0, 0, 0, 0, 0, 0, 0, 0, 0, 0, 0, 0, 0, 0, 0, 0, 0, 0, 0, 0, 0, 0, 0, 0, 0, 0, 0, 0, 0, 0, 0, 0, 0, 0, 0, 0, 0, 0, 0, 0, 0], [0, 0, 0, 0, 0, 0, 0, 0, 0, 0, 0, 0, 0, 0, 0, 0, 0, 0, 0, 0, 0, 0, 0, 0, 0, 0, 0, 0, 0, 0, 0, 0, 0, 0, 0, 0, 0, 0, 0, 0, 0, 0, 0, 0, 0, 0, 0, 0, 0, 0], [0, 0, 0, 0, 0, 0, 0, 0, 0, 0, 0, 0, 0, 0, 0, 0, 0, 0, 0, 0, 0, 0, 0, 0, 0, 0, 0, 0, 0, 0, 0, 0, 0, 0, 0, 0, 0, 0, 0, 0, 0, 0, 0, 0, 0, 0, 0, 0, 0, 0], [0, 0, 0, 0, 0, 0, 0, 0, 0, 0, 0, 0, 0, 0, 0, 0, 0, 0, 0, 0, 0, 0, 0, 0, 0, 0, 0, 0, 0, 0, 0, 0, 0, 0, 0, 0, 0, 0, 0, 0, 0, 0, 0, 0, 0, 0, 0, 0, 0, 0], [36, 47, 34, 30, 42, 47, 36, 50, 42, 43, 30, 36, 46, 45, 34, 46, 30, 38, 49, 46, 49, 44, 39, 38, 48, 43, 48, 50, 34, 31, 35, 49, 48, 31, 49, 42, 43, 47, 33, 37, 49, 39, 50, 45, 42, 35, 31, 31, 42, 34], [43, 48, 33, 40, 37, 50, 37, 31, 48, 37, 49, 45, 39, 32, 34, 50, 32, 36, 39, 45, 43, 40, 42, 36, 34, 44, 47, 35, 44, 35, 38, 36, 30, 33, 49, 37, 44, 45, 31, 43, 48, 40, 38, 36, 30, 32, 34, 31, 50, 30], [45, 34, 49, 45, 44, 32, 40, 48, 34, 43, 47, 49, 43, 48, 49, 46, 32, 45, 41, 42, 48, 40, 39, 49, 30, 35, 32, 35, 46, 33, 37, 37, 42, 38, 45, 49, 45, 31, 32, 41, 31, 41, 46, 32, 40, 31, 32, 37, 36, 50], [44, 32, 45, 41, 43, 36, 31, 42, 48, 42, 49, 37, 36, 50, 49, 48, 34, 41, 40, 41, 47, 36, 45, 40, 43, 47, 48, 45, 38, 44, 38, 44, 44, 46, 49, 30, 35, 34, 49, 45, 43, 41, 40, 45, 38, 36, 35, 38, 30, 49], [46, 47, 34, 41, 36, 48, 37, 46, 43, 42, 47, 44, 36, 45, 38, 33, 46, 49, 44, 33, 49, 37, 38, 37, 45, 50, 32, 33, 37, 49, 37, 36, 41, 39, 31, 32, 43, 39, 42, 47, 38, 41, 45, 40, 40, 30, 44, 36, 45, 39]], [[0, 0, 0, 0, 0, 0, 0, 0, 0, 0, 0, 0, 0, 0, 0, 0, 0, 0, 0, 0, 0, 0, 0, 0, 0, 0, 0, 0, 0, 0, 0, 0, 0, 0, 0, 0, 0, 0, 0, 0, 0, 0, 0, 0, 0, 0, 0, 0, 0, 0], [0, 0, 0, 0, 0, 0, 0, 0, 0, 0, 0, 0, 0, 0, 0, 0, 0, 0, 0, 0, 0, 0, 0, 0, 0, 0, 0, 0, 0, 0, 0, 0, 0, 0, 0, 0, 0, 0, 0, 0, 0, 0, 0, 0, 0, 0, 0, 0, 0, 0], [0, 0, 0, 0, 0, 0, 0, 0, 0, 0, 0, 0, 0, 0, 0, 0, 0, 0, 0, 0, 0, 0, 0, 0, 0, 0, 0, 0, 0, 0, 0, 0, 0, 0, 0, 0, 0, 0, 0, 0, 0, 0, 0, 0, 0, 0, 0, 0, 0, 0], [0, 0, 0, 0, 0, 0, 0, 0, 0, 0, 0, 0, 0, 0, 0, 0, 0, 0, 0, 0, 0, 0, 0, 0, 0, 0, 0, 0, 0, 0, 0, 0, 0, 0, 0, 0, 0, 0, 0, 0, 0, 0, 0, 0, 0, 0, 0, 0, 0, 0], [0, 0, 0, 0, 0, 0, 0, 0, 0, 0, 0, 0, 0, 0, 0, 0, 0, 0, 0, 0, 0, 0, 0, 0, 0, 0, 0, 0, 0, 0, 0, 0, 0, 0, 0, 0, 0, 0, 0, 0, 0, 0, 0, 0, 0, 0, 0, 0, 0, 0], [0, 0, 0, 0, 0, 0, 0, 0, 0, 0, 0, 0, 0, 0, 0, 0, 0, 0, 0, 0, 0, 0, 0, 0, 0, 0, 0, 0, 0, 0, 0, 0, 0, 0, 0, 0, 0, 0, 0, 0, 0, 0, 0, 0, 0, 0, 0, 0, 0, 0], [41, 42, 45, 40, 35, 41, 31, 40, 45, 47, 47, 43, 40, 50, 39, 47, 30, 50, 34, 30, 32, 42, 49, 46, 32, 38, 39, 37, 47, 40, 31, 31, 50, 46, 30, 49, 46, 37, 33, 37, 49, 31, 42, 30, 40, 31, 49, 37, 35, 45], [49, 48, 36, 44, 46, 38, 40, 39, 49, 50, 31, 37, 45, 32, 31, 45, 36, 30, 34, 44, 35, 45, 49, 45, 38, 42, 30, 38, 46, 47, 33, 43, 50, 38, 43, 41, 46, 49, 47, 30, 38, 42, 44, 40, 40, 40, 38, 35, 39, 43], [34, 38, 34, 32, 50, 34, 46, 40, 48, 34, 39, 42, 42, 47, 41, 49, 31, 42, 48, 43, 49, 44, 34, 45, 48, 40, 44, 38, 45, 41, 47, 32, 47, 48, 36, 35, 48, 46, 42, 46, 43, 42, 46, 31, 44, 39, 50, 46, 33, 39], [49, 46, 30, 37, 48, 39, 35, 42, 41, 34, 46, 31, 34, 32, 31, 33, 47, 50, 42, 42, 31, 45, 42, 46, 31, 33, 32, 37, 43, 31, 39, 47, 33, 47, 33, 31, 32, 41, 37, 40, 44, 45, 38, 36, 50, 39, 39, 38, 33, 43]], [[0, 0, 0, 0, 0, 0, 0, 0, 0, 0, 0, 0, 0, 0, 0, 0, 0, 0, 0, 0, 0, 0, 0, 0, 0, 0, 0, 0, 0, 0, 0, 0, 0, 0, 0, 0, 0, 0, 0, 0, 0, 0, 0, 0, 0, 0, 0, 0, 0, 0], [0, 0, 0, 0, 0, 0, 0, 0, 0, 0, 0, 0, 0, 0, 0, 0, 0, 0, 0, 0, 0, 0, 0, 0, 0, 0, 0, 0, 0, 0, 0, 0, 0, 0, 0, 0, 0, 0, 0, 0, 0, 0, 0, 0, 0, 0, 0, 0, 0, 0], [0, 0, 0, 0, 0, 0, 0, 0, 0, 0, 0, 0, 0, 0, 0, 0, 0, 0, 0, 0, 0, 0, 0, 0, 0, 0, 0, 0, 0, 0, 0, 0, 0, 0, 0, 0, 0, 0, 0, 0, 0, 0, 0, 0, 0, 0, 0, 0, 0, 0], [0, 0, 0, 0, 0, 0, 0, 0, 0, 0, 0, 0, 0, 0, 0, 0, 0, 0, 0, 0, 0, 0, 0, 0, 0, 0, 0, 0, 0, 0, 0, 0, 0, 0, 0, 0, 0, 0, 0, 0, 0, 0, 0, 0, 0, 0, 0, 0, 0, 0], [0, 0, 0, 0, 0, 0, 0, 0, 0, 0, 0, 0, 0, 0, 0, 0, 0, 0, 0, 0, 0, 0, 0, 0, 0, 0, 0, 0, 0, 0, 0, 0, 0, 0, 0, 0, 0, 0, 0, 0, 0, 0, 0, 0, 0, 0, 0, 0, 0, 0], [0, 0, 0, 0, 0, 0, 0, 0, 0, 0, 0, 0, 0, 0, 0, 0, 0, 0, 0, 0, 0, 0, 0, 0, 0, 0, 0, 0, 0, 0, 0, 0, 0, 0, 0, 0, 0, 0, 0, 0, 0, 0, 0, 0, 0, 0, 0, 0, 0, 0], [0, 0, 0, 0, 0, 0, 0, 0, 0, 0, 0, 0, 0, 0, 0, 0, 0, 0, 0, 0, 0, 0, 0, 0, 0, 0, 0, 0, 0, 0, 0, 0, 0, 0, 0, 0, 0, 0, 0, 0, 0, 0, 0, 0, 0, 0, 0, 0, 0, 0], [47, 45, 31, 37, 37, 40, 38, 43, 42, 32, 39, 43, 37, 50, 33, 39, 41, 35, 45, 44, 49, 41, 50, 31, 46, 35, 33, 39, 40, 39, 38, 42, 36, 34, 47, 50, 37, 39, 34, 47, 43, 42, 45, 48, 50, 47, 49, 36, 42, 50], [40, 31, 46, 35, 36, 31, 40, 43, 48, 47, 37, 30, 34, 42, 49, 38, 33, 32, 38, 32, 46, 35, 50, 50, 43, 42, 35, 31, 38, 33, 38, 41, 42, 34, 31, 50, 39, 33, 41, 43, 47, 42, 36, 36, 50, 48, 41, 46, 47, 30], [42, 39, 45, 34, 35, 38, 47, 35, 34, 41, 33, 42, 42, 33, 36, 45, 34, 48, 43, 45, 34, 49, 49, 41, 32, 39, 45, 45, 47, 35, 37, 33, 39, 31, 34, 40, 33, 30, 50, 32, 48, 49, 33, 35, 42, 49, 39, 50, 30, 34]], [[0, 0, 0, 0, 0, 0, 0, 0, 0, 0, 0, 0, 0, 0, 0, 0, 0, 0, 0, 0, 0, 0, 0, 0, 0, 0, 0, 0, 0, 0, 0, 0, 0, 0, 0, 0, 0, 0, 0, 0, 0, 0, 0, 0, 0, 0, 0, 0, 0, 0], [0, 0, 0, 0, 0, 0, 0, 0, 0, 0, 0, 0, 0, 0, 0, 0, 0, 0, 0, 0, 0, 0, 0, 0, 0, 0, 0, 0, 0, 0, 0, 0, 0, 0, 0, 0, 0, 0, 0, 0, 0, 0, 0, 0, 0, 0, 0, 0, 0, 0], [0, 0, 0, 0, 0, 0, 0, 0, 0, 0, 0, 0, 0, 0, 0, 0, 0, 0, 0, 0, 0, 0, 0, 0, 0, 0, 0, 0, 0, 0, 0, 0, 0, 0, 0, 0, 0, 0, 0, 0, 0, 0, 0, 0, 0, 0, 0, 0, 0, 0], [0, 0, 0, 0, 0, 0, 0, 0, 0, 0, 0, 0, 0, 0, 0, 0, 0, 0, 0, 0, 0, 0, 0, 0, 0, 0, 0, 0, 0, 0, 0, 0, 0, 0, 0, 0, 0, 0, 0, 0, 0, 0, 0, 0, 0, 0, 0, 0, 0, 0], [0, 0, 0, 0, 0, 0, 0, 0, 0, 0, 0, 0, 0, 0, 0, 0, 0, 0, 0, 0, 0, 0, 0, 0, 0, 0, 0, 0, 0, 0, 0, 0, 0, 0, 0, 0, 0, 0, 0, 0, 0, 0, 0, 0, 0, 0, 0, 0, 0, 0], [0, 0, 0, 0, 0, 0, 0, 0, 0, 0, 0, 0, 0, 0, 0, 0, 0, 0, 0, 0, 0, 0, 0, 0, 0, 0, 0, 0, 0, 0, 0, 0, 0, 0, 0, 0, 0, 0, 0, 0, 0, 0, 0, 0, 0, 0, 0, 0, 0, 0], [0, 0, 0, 0, 0, 0, 0, 0, 0, 0, 0, 0, 0, 0, 0, 0, 0, 0, 0, 0, 0, 0, 0, 0, 0, 0, 0, 0, 0, 0, 0, 0, 0, 0, 0, 0, 0, 0, 0, 0, 0, 0, 0, 0, 0, 0, 0, 0, 0, 0], [0, 0, 0, 0, 0, 0, 0, 0, 0, 0, 0, 0, 0, 0, 0, 0, 0, 0, 0, 0, 0, 0, 0, 0, 0, 0, 0, 0, 0, 0, 0, 0, 0, 0, 0, 0, 0, 0, 0, 0, 0, 0, 0, 0, 0, 0, 0, 0, 0, 0], [42, 44, 42, 36, 32, 47, 39, 49, 50, 32, 37, 48, 50, 50, 49, 47, 43, 48, 31, 33, 46, 33, 35, 31, 37, 43, 30, 30, 46, 50, 39, 48, 50, 50, 32, 41, 46, 43, 31, 40, 37, 38, 32, 31, 35, 35, 35, 45, 31, 46], [39, 35, 46, 37, 31, 36, 45, 38, 49, 41, 49, 37, 37, 49, 45, 48, 45, 50, 39, 39, 34, 36, 30, 50, 37, 45, 37, 34, 35, 47, 46, 38, 32, 47, 37, 34, 34, 48, 31, 42, 42, 35, 40, 45, 37, 49, 48, 40, 39, 48]], [[0, 0, 0, 0, 0, 0, 0, 0, 0, 0, 0, 0, 0, 0, 0, 0, 0, 0, 0, 0, 0, 0, 0, 0, 0, 0, 0, 0, 0, 0, 0, 0, 0, 0, 0, 0, 0, 0, 0, 0, 0, 0, 0, 0, 0, 0, 0, 0, 0, 0], [0, 0, 0, 0, 0, 0, 0, 0, 0, 0, 0, 0, 0, 0, 0, 0, 0, 0, 0, 0, 0, 0, 0, 0, 0, 0, 0, 0, 0, 0, 0, 0, 0, 0, 0, 0, 0, 0, 0, 0, 0, 0, 0, 0, 0, 0, 0, 0, 0, 0], [0, 0, 0, 0, 0, 0, 0, 0, 0, 0, 0, 0, 0, 0, 0, 0, 0, 0, 0, 0, 0, 0, 0, 0, 0, 0, 0, 0, 0, 0, 0, 0, 0, 0, 0, 0, 0, 0, 0, 0, 0, 0, 0, 0, 0, 0, 0, 0, 0, 0], [0, 0, 0, 0, 0, 0, 0, 0, 0, 0, 0, 0, 0, 0, 0, 0, 0, 0, 0, 0, 0, 0, 0, 0, 0, 0, 0, 0, 0, 0, 0, 0, 0, 0, 0, 0, 0, 0, 0, 0, 0, 0, 0, 0, 0, 0, 0, 0, 0, 0], [0, 0, 0, 0, 0, 0, 0, 0, 0, 0, 0, 0, 0, 0, 0, 0, 0, 0, 0, 0, 0, 0, 0, 0, 0, 0, 0, 0, 0, 0, 0, 0, 0, 0, 0, 0, 0, 0, 0, 0, 0, 0, 0, 0, 0, 0, 0, 0, 0, 0], [0, 0, 0, 0, 0, 0, 0, 0, 0, 0, 0, 0, 0, 0, 0, 0, 0, 0, 0, 0, 0, 0, 0, 0, 0, 0, 0, 0, 0, 0, 0, 0, 0, 0, 0, 0, 0, 0, 0, 0, 0, 0, 0, 0, 0, 0, 0, 0, 0, 0], [0, 0, 0, 0, 0, 0, 0, 0, 0, 0, 0, 0, 0, 0, 0, 0, 0, 0, 0, 0, 0, 0, 0, 0, 0, 0, 0, 0, 0, 0, 0, 0, 0, 0, 0, 0, 0, 0, 0, 0, 0, 0, 0, 0, 0, 0, 0, 0, 0, 0], [0, 0, 0, 0, 0, 0, 0, 0, 0, 0, 0, 0, 0, 0, 0, 0, 0, 0, 0, 0, 0, 0, 0, 0, 0, 0, 0, 0, 0, 0, 0, 0, 0, 0, 0, 0, 0, 0, 0, 0, 0, 0, 0, 0, 0, 0, 0, 0, 0, 0], [0, 0, 0, 0, 0, 0, 0, 0, 0, 0, 0, 0, 0, 0, 0, 0, 0, 0, 0, 0, 0, 0, 0, 0, 0, 0, 0, 0, 0, 0, 0, 0, 0, 0, 0, 0, 0, 0, 0, 0, 0, 0, 0, 0, 0, 0, 0, 0, 0, 0], [34, 48, 50, 35, 34, 34, 48, 37, 32, 37, 31, 45, 48, 39, 43, 42, 43, 39, 33, 44, 39, 38, 41, 43, 45, 45, 43, 38, 33, 36, 30, 45, 49, 33, 42, 40, 36, 44, 32, 44, 45, 50, 38, 41, 35, 48, 46, 49, 45, 47]], [[0, 0, 0, 0, 0, 0, 0, 0, 0, 0, 0, 0, 0, 0, 0, 0, 0, 0, 0, 0, 0, 0, 0, 0, 0, 0, 0, 0, 0, 0, 0, 0, 0, 0, 0, 0, 0, 0, 0, 0, 0, 0, 0, 0, 0, 0, 0, 0, 0, 0], [0, 0, 0, 0, 0, 0, 0, 0, 0, 0, 0, 0, 0, 0, 0, 0, 0, 0, 0, 0, 0, 0, 0, 0, 0, 0, 0, 0, 0, 0, 0, 0, 0, 0, 0, 0, 0, 0, 0, 0, 0, 0, 0, 0, 0, 0, 0, 0, 0, 0], [0, 0, 0, 0, 0, 0, 0, 0, 0, 0, 0, 0, 0, 0, 0, 0, 0, 0, 0, 0, 0, 0, 0, 0, 0, 0, 0, 0, 0, 0, 0, 0, 0, 0, 0, 0, 0, 0, 0, 0, 0, 0, 0, 0, 0, 0, 0, 0, 0, 0], [0, 0, 0, 0, 0, 0, 0, 0, 0, 0, 0, 0, 0, 0, 0, 0, 0, 0, 0, 0, 0, 0, 0, 0, 0, 0, 0, 0, 0, 0, 0, 0, 0, 0, 0, 0, 0, 0, 0, 0, 0, 0, 0, 0, 0, 0, 0, 0, 0, 0], [0, 0, 0, 0, 0, 0, 0, 0, 0, 0, 0, 0, 0, 0, 0, 0, 0, 0, 0, 0, 0, 0, 0, 0, 0, 0, 0, 0, 0, 0, 0, 0, 0, 0, 0, 0, 0, 0, 0, 0, 0, 0, 0, 0, 0, 0, 0, 0, 0, 0], [0, 0, 0, 0, 0, 0, 0, 0, 0, 0, 0, 0, 0, 0, 0, 0, 0, 0, 0, 0, 0, 0, 0, 0, 0, 0, 0, 0, 0, 0, 0, 0, 0, 0, 0, 0, 0, 0, 0, 0, 0, 0, 0, 0, 0, 0, 0, 0, 0, 0], [0, 0, 0, 0, 0, 0, 0, 0, 0, 0, 0, 0, 0, 0, 0, 0, 0, 0, 0, 0, 0, 0, 0, 0, 0, 0, 0, 0, 0, 0, 0, 0, 0, 0, 0, 0, 0, 0, 0, 0, 0, 0, 0, 0, 0, 0, 0, 0, 0, 0], [0, 0, 0, 0, 0, 0, 0, 0, 0, 0, 0, 0, 0, 0, 0, 0, 0, 0, 0, 0, 0, 0, 0, 0, 0, 0, 0, 0, 0, 0, 0, 0, 0, 0, 0, 0, 0, 0, 0, 0, 0, 0, 0, 0, 0, 0, 0, 0, 0, 0], [0, 0, 0, 0, 0, 0, 0, 0, 0, 0, 0, 0, 0, 0, 0, 0, 0, 0, 0, 0, 0, 0, 0, 0, 0, 0, 0, 0, 0, 0, 0, 0, 0, 0, 0, 0, 0, 0, 0, 0, 0, 0, 0, 0, 0, 0, 0, 0, 0, 0], [0, 0, 0, 0, 0, 0, 0, 0, 0, 0, 0, 0, 0, 0, 0, 0, 0, 0, 0, 0, 0, 0, 0, 0, 0, 0, 0, 0, 0, 0, 0, 0, 0, 0, 0, 0, 0, 0, 0, 0, 0, 0, 0, 0, 0, 0, 0, 0, 0, 0]]];

q = [[[5, 123], [16, 118], [18, 108], [15, 119], [20, 119], [23, 115], [6, 116], [14, 122], [23, 118], [20, 117], [9, 106], [14, 111], [20, 121], [24, 105], [7, 109], [20, 113], [22, 114], [23, 120], [14, 109], [8, 118], [18, 123], [11, 123], [16, 115], [12, 117], [15, 124], [21, 105], [15, 110], [17, 110], [14, 125], [5, 106], [16, 124], [6, 120], [25, 105], [22, 109], [11, 105], [17, 109], [9, 117], [10, 111], [23, 123], [12, 113], [23, 108], [21, 120], [6, 113], [18, 119], [19, 121], [9, 111], [8, 108], [18, 117], [15, 117], [15, 113]], [[9, 106], [7, 112], [17, 109], [20, 115], [9, 110], [18, 124], [17, 106], [21, 114], [10, 110], [7, 108], [24, 121], [17, 112], [18, 105], [18, 120], [23, 118], [9, 116], [18, 110], [13, 120], [12, 106], [15, 123], [5, 124], [21, 117], [12, 118], [6, 121], [21, 110], [8, 117], [24, 121], [5, 111], [13, 122], [6, 119], [22, 116], [14, 113], [22, 112], [10, 106], [12, 108], [17, 117], [25, 113], [14, 113], [16, 120], [20, 112], [20, 105], [17, 110], [6, 121], [18, 108], [23, 121], [15, 110], [15, 106], [20, 121], [12, 108], [22, 109]], [[11, 105], [15, 107], [12, 114], [18, 117], [6, 119], [15, 118], [21, 113], [11, 119], [19, 122], [7, 118], [23, 125], [13, 108], [25, 117], [13, 117], [10, 108], [6, 121], [12, 115], [14, 122], [8, 120], [15, 116], [12, 120], [19, 108], [20, 115], [6, 123], [18, 121], [7, 108], [22, 116], [6, 116], [8, 111], [16, 105], [24, 113], [5, 119], [17, 125], [24, 107], [10, 114], [10, 119], [14, 120], [14, 122], [16, 108], [10, 121], [10, 123], [19, 121], [22, 118], [8, 113], [19, 122], [11, 105], [13, 116], [13, 118], [9, 117], [20, 106]], [[17, 122], [25, 113], [10, 106], [7, 106], [9, 117], [6, 120], [19, 121], [13, 120], [21, 105], [13, 118], [17, 110], [16, 119], [20, 122], [5, 106], [18, 105], [12, 118], [7, 105], [11, 108], [14, 121], [12, 118], [11, 106], [22, 106], [22, 119], [23, 112], [9, 106], [8, 116], [6, 120], [8, 106], [20, 108], [15, 108], [10, 112], [12, 117], [16, 105], [21, 110], [14, 124], [21, 122], [22, 120], [10, 123], [14, 108], [13, 125], [20, 111], [25, 116], [6, 114], [24, 113], [23, 117], [25, 109], [18, 110], [24, 124], [7, 107], [10, 106]], [[10, 115], [10, 125], [23, 108], [14, 113], [18, 120], [15, 114], [6, 114], [18, 120], [17, 121], [17, 109], [19, 116], [13, 111], [25, 105], [19, 114], [16, 109], [24, 117], [21, 111], [24, 109], [11, 108], [20, 115], [6, 124], [20, 118], [24, 105], [16, 114], [8, 123], [19, 120], [16, 122], [20, 111], [24, 117], [19, 110], [15, 119], [15, 115], [12, 114], [12, 122], [19, 115], [9, 118], [15, 108], [11, 125], [5, 116], [10, 111], [6, 110], [23, 110], [22, 122], [18, 120], [12, 109], [25, 114], [16, 115], [12, 121], [21, 105], [20, 120]], [[22, 114], [11, 113], [14, 107], [13, 110], [18, 123], [16, 112], [22, 118], [22, 121], [19, 120], [18, 113], [10, 113], [19, 112], [20, 109], [7, 125], [16, 114], [12, 110], [22, 112], [16, 119], [5, 115], [7, 114], [16, 107], [6, 119], [10, 117], [20, 120], [19, 122], [9, 123], [10, 113], [24, 115], [8, 123], [20, 122], [22, 112], [17, 116], [14, 113], [12, 109], [25, 110], [18, 110], [7, 106], [10, 108], [7, 111], [18, 115], [25, 117], [17, 121], [20, 116], [25, 106], [6, 108], [19, 107], [20, 119], [25, 125], [18, 120], [18, 125]], [[12, 105], [21, 114], [15, 107], [8, 117], [19, 113], [8, 109], [21, 122], [18, 106], [16, 116], [16, 120], [23, 123], [5, 105], [16, 121], [12, 106], [20, 124], [20, 118], [14, 112], [14, 112], [10, 121], [21, 121], [12, 109], [20, 120], [14, 107], [11, 110], [22, 107], [21, 108], [22, 107], [6, 116], [24, 120], [21, 113], [22, 119], [21, 107], [10, 119], [9, 111], [10, 107], [22, 114], [13, 106], [20, 119], [7, 116], [7, 125], [21, 115], [11, 115], [22, 107], [7, 109], [17, 121], [22, 125], [21, 112], [12, 115], [22, 112], [24, 116]], [[14, 119], [8, 117], [18, 116], [10, 119], [17, 109], [18, 117], [18, 118], [8, 119], [11, 120], [25, 124], [7, 118], [11, 116], [7, 122], [23, 117], [16, 120], [11, 119], [17, 116], [10, 119], [20, 106], [14, 115], [10, 121], [15, 115], [9, 105], [8, 122], [23, 111], [13, 124], [17, 106], [18, 114], [18, 112], [15, 111], [13, 106], [13, 112], [11, 114], [25, 124], [13, 122], [15, 108], [17, 114], [13, 120], [25, 122], [18, 106], [15, 122], [20, 123], [25, 113], [21, 122], [12, 117], [11, 116], [11, 112], [8, 120], [16, 118], [7, 114]], [[19, 111], [18, 120], [13, 117], [24, 105], [18, 118], [22, 117], [20, 115], [15, 109], [9, 123], [12, 114], [13, 112], [6, 123], [15, 125], [9, 117], [21, 110], [20, 119], [15, 115], [12, 123], [9, 123], [12, 124], [12, 115], [17, 107], [10, 120], [21, 114], [15, 115], [15, 109], [15, 123], [23, 110], [20, 114], [6, 123], [15, 118], [6, 108], [17, 105], [9, 124], [12, 113], [16, 110], [22, 121], [19, 115], [24, 114], [8, 115], [23, 124], [12, 110], [10, 118], [15, 122], [20, 110], [24, 109], [10, 113], [19, 118], [10, 115], [6, 105]], [[18, 121], [12, 121], [25, 117], [22, 125], [11, 108], [22, 106], [12, 106], [17, 123], [16, 107], [6, 116], [13, 116], [11, 115], [9, 110], [14, 112], [11, 111], [8, 123], [13, 106], [13, 124], [6, 111], [19, 116], [15, 109], [20, 110], [16, 118], [18, 106], [6, 119], [11, 112], [23, 118], [9, 105], [24, 115], [8, 110], [5, 122], [9, 120], [16, 124], [24, 105], [7, 116], [13, 124], [20, 115], [24, 117], [22, 121], [18, 117], [19, 111], [18, 107], [18, 117], [16, 106], [22, 125], [10, 120], [7, 109], [18, 109], [18, 116], [5, 111]]];
Q = [[64, 460], [67, 456], [72, 464], [70, 455], [72, 460], [61, 460], [61, 456], [55, 465], [60, 463], [64, 459]];
